c FILE /home/rafael/Documents/HappySet/MIHS/inputs/happygen/output/graph_d_regular_k4_p0.5_v50_20241127_082620.txt
c SOURCE This is a d-regular graph formed for the happy graph colouring problem.
c DESCRIPTION It was generated using the problem generator of Rhyd Lewis
c
c GRAPH STATS
c Seed                             = 260730022
c Number of Nodes                  = 50
c Number of colours k              = 4
c Number of pre-assignments        = 25
c Degree of all vertices           = 6
c Density                          = 0.122449
c 
c The degrees of nodes 1 to 50, respectively, are as follows 
c [6, 6, 6, 6, 6, 6, 6, 6, 6, 6, 6, 6, 6, 6, 6, 6, 6, 6, 6, 6, 6, 6, 6, 6, 6, 6, 
c  6, 6, 6, 6, 6, 6, 6, 6, 6, 6, 6, 6, 6, 6, 6, 6, 6, 6, 6, 6, 6, 6, 6, 6] 
c  
p edge 50 150 4
e 1 3
e 1 5
e 1 18
e 1 19
e 1 22
e 1 31
e 2 9
e 2 23
e 2 24
e 2 29
e 2 33
e 2 37
e 3 10
e 3 13
e 3 14
e 3 29
e 3 47
e 4 11
e 4 19
e 4 24
e 4 27
e 4 39
e 4 40
e 5 12
e 5 16
e 5 17
e 5 20
e 5 31
e 6 9
e 6 11
e 6 34
e 6 46
e 6 47
e 6 49
e 7 12
e 7 15
e 7 16
e 7 20
e 7 22
e 7 26
e 8 13
e 8 14
e 8 15
e 8 26
e 8 31
e 8 43
e 9 14
e 9 31
e 9 41
e 9 50
e 10 21
e 10 25
e 10 33
e 10 42
e 10 46
e 11 17
e 11 18
e 11 35
e 11 47
e 12 22
e 12 27
e 12 45
e 12 47
e 13 24
e 13 36
e 13 41
e 13 44
e 14 26
e 14 35
e 14 36
e 15 20
e 15 21
e 15 24
e 15 34
e 16 26
e 16 38
e 16 48
e 16 50
e 17 27
e 17 34
e 17 44
e 17 45
e 18 30
e 18 37
e 18 44
e 18 48
e 19 29
e 19 32
e 19 36
e 19 37
e 20 31
e 20 41
e 20 46
e 21 27
e 21 44
e 21 46
e 21 50
e 22 25
e 22 32
e 22 42
e 23 32
e 23 35
e 23 36
e 23 38
e 23 44
e 24 45
e 24 50
e 25 28
e 25 30
e 25 35
e 25 37
e 26 28
e 26 33
e 27 42
e 27 47
e 28 30
e 28 38
e 28 40
e 28 44
e 29 34
e 29 48
e 29 49
e 30 36
e 30 46
e 30 50
e 31 38
e 32 40
e 32 41
e 32 42
e 33 39
e 33 40
e 33 49
e 34 38
e 34 42
e 35 36
e 35 37
e 37 48
e 38 43
e 39 42
e 39 43
e 39 47
e 39 48
e 40 45
e 40 50
e 41 43
e 41 49
e 43 45
e 43 49
e 45 46
e 48 49
n 2 4
n 3 1
n 4 4
n 7 1
n 8 3
n 12 1
n 16 1
n 17 3
n 18 4
n 19 4
n 21 2
n 23 4
n 24 4
n 28 4
n 31 3
n 34 3
n 35 4
n 37 4
n 40 4
n 41 3
n 42 3
n 43 3
n 46 2
n 47 1
n 49 3
